\ Model a
\ LP format - for model browsing. Use MPS format to capture full model detail.
Minimize
  0 p[1,6] + 0 p[2,4] + 0 p[2,7] + 0 p[3,5] + 0 p[3,8] + 0 p[1,6] + 0 p[2,4]
   + 0 p[2,7] + 0 p[3,5] + 0 p[3,8]
Subject To
Bounds
End
